NAME : single
TYPE : ATSP
DIMENSION : 9
EDGE_WEIGHT_TYPE : EXPLICIT
EDGE_WEIGHT_FORMAT : FULL_MATRIX
EDGE_WEIGHT_SECTION
0 429 50150 478 50171 130 149 181 416 
0 0 586 97 674 265 186 271 19 
0 586 0 340 258 715 669 726 456 
0 97 340 0 496 340 286 344 106 
0 674 258 496 0 50000 50000 50000 50000 
0 265 715 340 50000 0 75 201 280 
0 186 669 286 50000 75 0 126 191 
0 271 726 344 50000 201 126 0 280 
0 19 456 106 50000 280 191 280 0 
EOF